30
5
351516
0
0
43 36 14 21 16
1
0
61 3 63 22 32
2
0
56 1 1 104 70
3
0
3 5 21 8 22
4
0
36 75 43 24 22
5
0
27 140 41 22 32
6
0
62 66 2 6 141
7
0
23 17 164 37 186
8
0
26 72 2 166 104
9
0
32 53 25 11 56
10
0
64 68 22 94 103
11
0
170 21 32 8 166
12
0
12 31 62 24 154
13
0
37 26 25 77 89
14
0
1 13 14 49 17
15
0
22 4 202 3 33
16
0
175 42 67 69 18
17
0
36 84 2 1 28
18
0
62 2 15 101 21
19
0
12 12 168 9 144
20
0
5 70 127 183 55
21
0
28 39 18 6 35
22
0
6 76 7 45 11
23
0
159 30 53 47 11
24
0
23 12 47 59 91
25
0
78 77 24 16 118
26
0
25 2 2 4 19
27
0
109 38 133 118 121
28
0
1 17 126 19 30
29
0
2 113 4 60 179
